; Options: -in -smt2
(set-option :produce-unsat-assumptions true)

(declare-fun start!2281 () Bool)

(assert start!2281)

(declare-fun res!9157 () Bool)

(declare-fun e!6771 () Bool)

(assert (=> start!2281 (=> (not res!9157) (not e!6771))))

(declare-fun jz!59 () (_ BitVec 32))

(assert (=> start!2281 (= res!9157 (and (bvsle #b00000000000000000000000000000010 jz!59) (bvslt jz!59 #b00000000000000000000000000010011)))))

(assert (=> start!2281 e!6771))

(assert (=> start!2281 true))

(declare-datatypes ((array!885 0))(
  ( (array!886 (arr!389 (Array (_ BitVec 32) (_ BitVec 32))) (size!389 (_ BitVec 32))) )
))
(declare-fun iq!194 () array!885)

(declare-fun array_inv!338 (array!885) Bool)

(assert (=> start!2281 (array_inv!338 iq!194)))

(declare-datatypes ((array!887 0))(
  ( (array!888 (arr!390 (Array (_ BitVec 32) (_ FloatingPoint 11 53))) (size!390 (_ BitVec 32))) )
))
(declare-fun qq!48 () array!887)

(declare-fun array_inv!339 (array!887) Bool)

(assert (=> start!2281 (array_inv!339 qq!48)))

(declare-fun q!93 () array!887)

(assert (=> start!2281 (array_inv!339 q!93)))

(declare-fun b!11681 () Bool)

(declare-fun e!6770 () Bool)

(declare-fun e!6768 () Bool)

(assert (=> b!11681 (= e!6770 e!6768)))

(declare-fun res!9152 () Bool)

(assert (=> b!11681 (=> (not res!9152) (not e!6768))))

(declare-datatypes ((Unit!1328 0))(
  ( (Unit!1329) )
))
(declare-datatypes ((tuple3!220 0))(
  ( (tuple3!221 (_1!303 Unit!1328) (_2!303 array!885) (_3!240 (_ BitVec 32))) )
))
(declare-fun lt!6188 () tuple3!220)

(declare-fun lt!6186 () Bool)

(declare-fun i!271 () (_ BitVec 32))

(assert (=> b!11681 (= res!9152 (and (bvsle #b00000000000000000000000000000000 (select (arr!389 (_2!303 lt!6188)) (bvsub jz!59 #b00000000000000000000000000000001))) (bvsle (select (arr!389 (_2!303 lt!6188)) (bvsub jz!59 #b00000000000000000000000000000001)) #b00000000100000000000000000000000) (or (not lt!6186) (not (= (_3!240 lt!6188) #b00000000000000000000000000000000)) (not (= (select (arr!389 (_2!303 lt!6188)) (bvsub jz!59 #b00000000000000000000000000000001)) #b00000000100000000000000000000000))) (bvsle (select (arr!389 (_2!303 lt!6188)) (bvsub jz!59 #b00000000000000000000000000000001)) #b00000000011111111111111111111111) (bvsle #b00000000000000000000000000000000 i!271) (bvsle i!271 jz!59)))))

(declare-fun e!6766 () tuple3!220)

(assert (=> b!11681 (= lt!6188 e!6766)))

(declare-fun c!1478 () Bool)

(assert (=> b!11681 (= c!1478 lt!6186)))

(declare-fun lt!6184 () (_ BitVec 32))

(assert (=> b!11681 (= lt!6184 #b00000000000000000000000000000000)))

(declare-datatypes ((tuple4!260 0))(
  ( (tuple4!261 (_1!304 Unit!1328) (_2!304 array!885) (_3!241 (_ BitVec 32)) (_4!130 (_ FloatingPoint 11 53))) )
))
(declare-fun lt!6187 () tuple4!260)

(assert (=> b!11681 (= lt!6186 (bvsge (select (arr!389 (_2!304 lt!6187)) (bvsub jz!59 #b00000000000000000000000000000001)) #b00000000100000000000000000000000))))

(declare-fun b!11682 () Bool)

(declare-fun res!9151 () Bool)

(assert (=> b!11682 (=> (not res!9151) (not e!6768))))

(declare-fun iqInv!0 (array!885) Bool)

(assert (=> b!11682 (= res!9151 (iqInv!0 iq!194))))

(declare-fun b!11683 () Bool)

(declare-fun lt!6192 () array!885)

(declare-fun e!6774 () tuple4!260)

(declare-fun lt!6185 () (_ FloatingPoint 11 53))

(declare-fun computeModuloWhile!0 ((_ BitVec 32) array!887 array!885 (_ BitVec 32) (_ FloatingPoint 11 53)) tuple4!260)

(assert (=> b!11683 (= e!6774 (computeModuloWhile!0 jz!59 q!93 lt!6192 jz!59 lt!6185))))

(declare-fun lt!6189 () (_ BitVec 32))

(declare-datatypes ((tuple4!262 0))(
  ( (tuple4!263 (_1!305 Unit!1328) (_2!305 (_ BitVec 32)) (_3!242 array!885) (_4!131 (_ BitVec 32))) )
))
(declare-fun lt!6190 () tuple4!262)

(declare-fun b!11684 () Bool)

(declare-fun Unit!1330 () Unit!1328)

(assert (=> b!11684 (= e!6766 (tuple3!221 Unit!1330 (array!886 (store (arr!389 (_3!242 lt!6190)) (bvsub jz!59 #b00000000000000000000000000000001) (ite (= (_4!131 lt!6190) #b00000000000000000000000000000000) (bvsub #b00000001000000000000000000000000 lt!6189) (bvsub #b00000000111111111111111111111111 lt!6189))) (size!389 (_3!242 lt!6190))) (_4!131 lt!6190)))))

(declare-fun lt!6183 () (_ BitVec 32))

(assert (=> b!11684 (= lt!6183 #b00000000000000000000000000000000)))

(declare-fun c!1477 () Bool)

(assert (=> b!11684 (= c!1477 (bvslt lt!6183 (bvsub jz!59 #b00000000000000000000000000000001)))))

(declare-fun e!6772 () tuple4!262)

(assert (=> b!11684 (= lt!6190 e!6772)))

(assert (=> b!11684 (= lt!6189 (select (arr!389 (_3!242 lt!6190)) (bvsub jz!59 #b00000000000000000000000000000001)))))

(declare-fun b!11685 () Bool)

(assert (=> b!11685 (= e!6768 (and (bvslt i!271 jz!59) (let ((lhs!118 (bvsub jz!59 #b00000000000000000000000000000001))) (and (not (= (bvand lhs!118 #b10000000000000000000000000000000) (bvand i!271 #b10000000000000000000000000000000))) (not (= (bvand lhs!118 #b10000000000000000000000000000000) (bvand (bvsub lhs!118 i!271) #b10000000000000000000000000000000)))))))))

(declare-fun b!11686 () Bool)

(declare-fun res!9153 () Bool)

(assert (=> b!11686 (=> (not res!9153) (not e!6768))))

(declare-fun qqInv!0 (array!887) Bool)

(assert (=> b!11686 (= res!9153 (qqInv!0 qq!48))))

(declare-fun b!11687 () Bool)

(declare-fun Unit!1331 () Unit!1328)

(assert (=> b!11687 (= e!6774 (tuple4!261 Unit!1331 lt!6192 jz!59 lt!6185))))

(declare-fun b!11688 () Bool)

(declare-fun computeModuloWhile!3 ((_ BitVec 32) array!887 (_ BitVec 32) array!885 (_ BitVec 32)) tuple4!262)

(assert (=> b!11688 (= e!6772 (computeModuloWhile!3 jz!59 q!93 lt!6183 (_2!304 lt!6187) lt!6184))))

(declare-fun b!11689 () Bool)

(declare-fun res!9155 () Bool)

(assert (=> b!11689 (=> (not res!9155) (not e!6771))))

(declare-fun qInv!0 (array!887) Bool)

(assert (=> b!11689 (= res!9155 (qInv!0 q!93))))

(declare-fun b!11690 () Bool)

(declare-fun res!9154 () Bool)

(assert (=> b!11690 (=> (not res!9154) (not e!6768))))

(assert (=> b!11690 (= res!9154 (and (bvsle (select (arr!389 iq!194) (bvsub jz!59 #b00000000000000000000000000000001)) #b00000000011111111111111111111111) (= (size!390 qq!48) #b00000000000000000000000000010100)))))

(declare-fun b!11691 () Bool)

(assert (=> b!11691 (= e!6771 e!6770)))

(declare-fun res!9156 () Bool)

(assert (=> b!11691 (=> (not res!9156) (not e!6770))))

(declare-fun lt!6191 () (_ FloatingPoint 11 53))

(assert (=> b!11691 (= res!9156 (and (fp.leq (fp #b0 #b00000000000 #b0000000000000000000000000000000000000000000000000000) lt!6191) (fp.lt lt!6191 (fp #b0 #b10000000010 #b0000000000000000000000000000000000000000000000000000))))))

(assert (=> b!11691 (= lt!6191 (fp.sub roundNearestTiesToEven (_4!130 lt!6187) (fp.mul roundNearestTiesToEven (fp #b0 #b10000000010 #b0000000000000000000000000000000000000000000000000000) ((_ to_fp 11 53) roundNearestTiesToEven (ite (fp.isNaN (fp.mul roundNearestTiesToEven (_4!130 lt!6187) (fp #b0 #b01111111100 #b0000000000000000000000000000000000000000000000000000))) #b0000000000000000000000000000000000000000000000000000000000000000 (ite (fp.gt (fp.mul roundNearestTiesToEven (_4!130 lt!6187) (fp #b0 #b01111111100 #b0000000000000000000000000000000000000000000000000000)) ((_ to_fp 11 53) roundTowardZero #b0111111111111111111111111111111111111111111111111111111111111111)) #b0111111111111111111111111111111111111111111111111111111111111111 (ite (fp.lt (fp.mul roundNearestTiesToEven (_4!130 lt!6187) (fp #b0 #b01111111100 #b0000000000000000000000000000000000000000000000000000)) ((_ to_fp 11 53) roundTowardZero #b1000000000000000000000000000000000000000000000000000000000000000)) #b1000000000000000000000000000000000000000000000000000000000000000 ((_ fp.to_sbv 64) roundTowardZero (fp.mul roundNearestTiesToEven (_4!130 lt!6187) (fp #b0 #b01111111100 #b0000000000000000000000000000000000000000000000000000))))))))))))

(assert (=> b!11691 (= lt!6187 e!6774)))

(declare-fun c!1476 () Bool)

(assert (=> b!11691 (= c!1476 (bvsgt jz!59 #b00000000000000000000000000000000))))

(assert (=> b!11691 (= lt!6185 (select (arr!390 q!93) jz!59))))

(assert (=> b!11691 (= lt!6192 (array!886 ((as const (Array (_ BitVec 32) (_ BitVec 32))) #b00000000000000000000000000000000) #b00000000000000000000000000010100))))

(declare-fun b!11692 () Bool)

(declare-fun Unit!1332 () Unit!1328)

(assert (=> b!11692 (= e!6772 (tuple4!263 Unit!1332 lt!6183 (_2!304 lt!6187) lt!6184))))

(declare-fun b!11693 () Bool)

(declare-fun Unit!1333 () Unit!1328)

(assert (=> b!11693 (= e!6766 (tuple3!221 Unit!1333 (_2!304 lt!6187) lt!6184))))

(assert (= (and start!2281 res!9157) b!11689))

(assert (= (and b!11689 res!9155) b!11691))

(assert (= (and b!11691 c!1476) b!11683))

(assert (= (and b!11691 (not c!1476)) b!11687))

(assert (= (and b!11691 res!9156) b!11681))

(assert (= (and b!11681 c!1478) b!11684))

(assert (= (and b!11681 (not c!1478)) b!11693))

(assert (= (and b!11684 c!1477) b!11688))

(assert (= (and b!11684 (not c!1477)) b!11692))

(assert (= (and b!11681 res!9152) b!11682))

(assert (= (and b!11682 res!9151) b!11690))

(assert (= (and b!11690 res!9154) b!11686))

(assert (= (and b!11686 res!9153) b!11685))

(declare-fun m!16265 () Bool)

(assert (=> b!11683 m!16265))

(declare-fun m!16267 () Bool)

(assert (=> b!11684 m!16267))

(declare-fun m!16269 () Bool)

(assert (=> b!11684 m!16269))

(declare-fun m!16271 () Bool)

(assert (=> b!11689 m!16271))

(declare-fun m!16273 () Bool)

(assert (=> b!11681 m!16273))

(declare-fun m!16275 () Bool)

(assert (=> b!11681 m!16275))

(declare-fun m!16277 () Bool)

(assert (=> start!2281 m!16277))

(declare-fun m!16279 () Bool)

(assert (=> start!2281 m!16279))

(declare-fun m!16281 () Bool)

(assert (=> start!2281 m!16281))

(declare-fun m!16283 () Bool)

(assert (=> b!11686 m!16283))

(declare-fun m!16285 () Bool)

(assert (=> b!11682 m!16285))

(declare-fun m!16287 () Bool)

(assert (=> b!11690 m!16287))

(declare-fun m!16289 () Bool)

(assert (=> b!11691 m!16289))

(declare-fun m!16291 () Bool)

(assert (=> b!11688 m!16291))

(check-sat (not b!11688) (not start!2281) (not b!11682) (not b!11689) (not b!11683) (not b!11686))
(check-sat)
